/*********************************************
 * OPL 12.7.1.0 Data
 * Author: fargier
 * Creation Date: 20 nov. 2017 at 14:23:37
 *********************************************/
/*********************************************
 * OPL 12.7.1.0 Data
 * Author: fargier
 * Creation Date: 16 nov. 2017 at 12:40:21
 *********************************************/
/*********************************************
 * OPL 6.0 Data
 * Author: fargier
 * Creation Date: 3 juil. 08 at 16:44:06
 *********************************************/




NbImages = 40 ;

TY = [1, 2, 1, 2, 1, 1, 1, 2, 1, 1, 1, 2, 1, 2, 1, 1, 1, 2, 1, 1, 
      2, 2, 1, 2, 1, 1, 1, 2, 1, 1, 1, 2, 1, 2, 1, 1, 1, 2, 1, 2] ; 

 

PM = [10, 20, 10, 20, 10, 10, 10, 20, 10, 10, 10, 20, 10, 20, 10, 10,
10, 20, 10, 10, 20, 20, 10, 20, 10, 10, 10, 20, 10, 10, 10, 20, 10,
20, 10, 10, 10, 20, 10, 20] ;  

PA = [10, 20, 40, 30, 10, 20, 40, 20, 50, 20, 10, 20, 50, 30, 20, 10,
40, 10, 30, 20, 40, 20, 40, 30, 60, 20, 40, 20, 50, 40, 10, 20, 50,
30, 20, 10, 40, 10, 30, 40] ;   
 
// Probability of Cloudy Weather
 
//ProbaInf = [0, 0, 0, 0, 0, 0, 0, 0, 0, 0, 0, 0, 0, 0, 0, 0, 0, 0, 0, 0,
//      0, 0, 0, 0, 0, 0, 0, 0, 0, 0, 0, 0, 0, 0, 0, 0, 0, 0, 0, 0] ;    
//
//ProbaSup =  [0, 0, 0, 0, 0, 0, 0, 0, 0, 0, 0, 0, 0, 0, 0, 0, 0, 0, 0, 0,
 //     0, 0, 0, 0, 0, 0, 0, 0, 0, 0, 0, 0, 0, 0, 0, 0, 0, 0, 0, 0] ;  

 ProbaInf = [0, 0, 0, 0, 0, 0, 0, 0, 0, 0, 0, 0, 0, 0, 0, 0,
0, 0.1, 0.1, 0.1, 0.1, 0.1, 0.1, 0.1, 0.1, 0.2, 0.2, 0.2, 0.2, 0.2, 0.2, 0.3, 0.3,
0.3, 0.3, 0.3, 0.5, 0.5, 0.5, 0.5] ;   

ProbaSup = [0.1, 0.1, 0.1, 0.1, 0.1, 0.1, 0.1, 0.1, 0.1, 0.1, 0.1, 0.1, 0.1, 0.1, 0.1, 0.1,
0.1, 0.3, 0.3, 0.3, 0.3, 0.3, 0.3, 0.3, 0.3, 0.4, 0.4, 0.4, 0.4, 0.4, 0.4, 0.5, 0.5,
0.5, 0.5, 0.5, 0.7, 0.7, 0.7, 0.7] ; 

NbInstruments = 3 ;

// proba of failure of each instrument
Failure = [0.001, 0.001, 0.7];

//Failure = [0, 0, 0];

DD = [ [100, 200, 300], [130, 0, 330], [150, 250, 350], [200, 0, 400],
[220, 320, 420], [230, 330, 430], [250, 350, 450], [260, 0, 460],
[290, 390, 490], [300, 400, 500], [300, 400, 500], [320, 0, 520],
[330, 430, 530], [400, 0, 600], [420, 520, 620], [430, 530, 630],
[450, 550, 650], [460, 0, 660], [470, 570, 670], [500, 600, 700],
[500, 600, 700], [540, 0, 740], [550, 650, 750], [600, 0, 800], 
[610, 710, 810], [630, 730, 830], [650, 750, 850], [660, 0, 860],
[690, 790, 890], [700, 800, 900], [700, 800, 900], [710, 0, 910],
[730, 830, 930], [800, 0, 1000], [820, 920, 1020], [830, 930, 1030],
[850, 950, 1050], [860, 0, 1060], [870, 970, 1070], [910, 1010, 1110] ] ; 

AN = [ [10, 10, 10], [-5, 0, -5], [20, 20, 20], [-10, 0, -10], [5, 5,
5], [20, 20, 20], [10, 10, 10], [-10, 0, -10], [5, 5, 5], [15, 15,
15], [0, 0, 0], [-5, 0, -5], [20, 20, 20], [-15, 0, -15], [5, 5,
5], [20, 20, 20], [15, 15, 15], [-10, 0, -10], [5, 5, 5], [-15, -15,
-15], [5, 5, 5], [-5, 0, -5], [25, 25, 25], [-10, 0, -10], [5, 5,
5], [20, 20, 20], [10, 10, 10], [-10, 0, -10], [5, 5, 5], [15, 15,
15], [0, 0, 0], [-5, 0, -5], [25, 25, 25], [-15, 0, -15], [5, 5,
5], [20, 20, 20], [15, 15, 15], [-10, 0, -10], [5, 5, 5], [-5, -5,
-5] ] ; 

DU = 20 ;

VI = 1 ;

PMmax = 300 ;

 